104319
40,77,68,14,24,41,54,22,11,2,42,56,33,48,46,59,80,71,50,15,37,1,29,78,5,60,82,7,27,34,74,81,31,57,73,39,10,32,26,6,55,16,76,8,19,66,75,13,69,61,25,35,65,70,53,45,44,79,28,9,0,63,72,12,36,17,20,47,23,30,18,4,21,43,67,58,52,64,49,3,62,38,51
